12 32 6 10
20 13 4 11 20 5 16 9 3 4 8 3 11 8 12 19 4 13 13 2 18 2 5 20 19 13 16 11 6 20 1 14 
1.22 14.96 10.21 13.11 11.05 3.18 14.37 0.65 14.29 13.29 8.5 3.61 8.97 1.74 9.12 1.87 4.49 2.14 12.23 1.32 9.5 8.47 8.76 15.64 8.37 5.93 13.26 13.04 3.93 3.41 1.86 1.89 
4.87 7.99 10.79 4.08 10.41 6.05 0.88 9.94 7.65 10.63 3.22 0.43 15.28 12.29 12.69 3.51 10.2 8.8 9.9 4.09 2.69 2.15 4.34 9.06 3.65 12.8 11.15 7.29 14.55 6.36 9.18 11.82 
12.99 1.51 6.19 12.68 4.27 4.86 8.93 2.86 10.64 3.72 13.94 15.69 8.42 13.96 14.71 9.6 10.19 12.61 1.77 3.77 8.31 9.64 8.12 3.13 14.59 2.22 4.95 7.26 12.18 14.27 2.27 0.25 
7.31 11.66 1.74 9.82 5.67 4.63 0.99 10.45 12.67 7.55 4.36 12.45 11.26 13.12 4.93 8.72 0.06 14.54 9.12 5.33 1.79 11.36 6.74 15.58 0.79 2 11.32 4.15 0.88 3.22 12.1 5.23 
13.34 11.95 2.7 13.76 10 5.96 15.02 8.81 15.96 11.94 12.34 8.96 13.43 13.6 15.59 11.59 11.34 8.12 10.18 8.42 8.03 0.21 3.73 2.7 4.23 5.96 3.25 3.5 7.43 4.42 8.84 2.33 
0.31 1.74 13.58 4.26 13.36 12.89 1.33 9.49 11.68 5.3 0.01 9.25 13.78 0.44 15.48 5.43 10.56 12.75 7.02 6.84 9.27 12.59 10.24 14.87 1.21 0.25 0.38 13.12 7.76 2.16 2.43 6.62 
8 8 8 8 8 8 8 8 8 8 8 8 8 8 8 8 8 8 8 8 8 8 8 8 8 8 8 8 8 8 8 8 
1.51 10.1 4.94 8.29 3.08 3.85 1.43 14.53 8.65 7.21 1.76 14.88 4.03 10.4 2.48 8.29 4.9 6.4 3.18 13.62 2.24 11.17 0.73 5.69 14.71 5.14 5.47 8.71 6.23 6.27 10.63 4.34 
12.19 4.87 14.56 12.4 6.6 1.79 2.19 12.37 12.99 4.99 11.27 12.41 3.63 15.54 1.66 5.8 7.74 6.69 14.82 4.69 10.88 1.14 15.1 7.41 3.26 4.73 11.73 4.14 15.95 12.36 14.85 5.39 
3.36 5.92 10.94 2.77 11.98 14.98 4.69 0.33 10.52 3.69 0.57 7.94 13.94 1.12 14.65 4.17 15.12 3.59 0.17 14.34 6.35 2.67 12.89 12.37 9.26 6.31 7.94 2.82 4.57 15.86 4.35 15.47 
0.87 7.09 6.5 5.76 8.25 12.99 0.28 12.12 2.4 1.32 8.68 14.32 2.03 3.63 4.28 9.9 2.78 12.95 6.19 3.06 6.13 15.63 0.14 1.87 15.2 14.63 7.14 15.49 9.73 1 15.27 5.65 
6.84 12.53 10.31 12.27 8.86 1.48 10.15 13.41 3.66 0.52 8.08 7.1 7.51 5.83 11.99 9.24 3.59 6.29 8.74 12.84 5.07 14 11.92 7.19 15.87 8.35 12.09 5.05 14.77 14.91 4.45 2.07 
1 1 1 1 1 1 1 1 1 1 1 1 1 1 1 1 1 1 1 1 1 1 1 1 1 1 1 1 1 1 1 1 
1 1 1 1 1 1 1 1 1 1 1 1 1 1 1 1 1 1 1 1 1 1 1 1 1 1 1 1 1 1 1 1 
1 1 1 1 1 1 1 1 1 1 1 1 1 1 1 1 1 1 1 1 1 1 1 1 1 1 1 1 1 1 1 1 
1 1 1 1 1 1 1 1 1 1 1 1 1 1 1 1 1 1 1 1 1 1 1 1 1 1 1 1 1 1 1 1 
1 1 1 1 1 1 1 1 1 1 1 1 1 1 1 1 1 1 1 1 1 1 1 1 1 1 1 1 1 1 1 1 
1 1 1 1 1 1 1 1 1 1 1 1 1 1 1 1 1 1 1 1 1 1 1 1 1 1 1 1 1 1 1 1 
1 1 1 1 1 1 1 1 1 1 1 1 1 1 1 1 1 1 1 1 1 1 1 1 1 1 1 1 1 1 1 1 
1 1 1 1 1 1 1 1 1 1 1 1 1 1 1 1 1 1 1 1 1 1 1 1 1 1 1 1 1 1 1 1 
1 1 1 1 1 1 1 1 1 1 1 1 1 1 1 1 1 1 1 1 1 1 1 1 1 1 1 1 1 1 1 1 
1 1 1 1 1 1 1 1 1 1 1 1 1 1 1 1 1 1 1 1 1 1 1 1 1 1 1 1 1 1 1 1 
1 1 1 1 1 1 1 1 1 1 1 1 1 1 1 1 1 1 1 1 1 1 1 1 1 1 1 1 1 1 1 1 
1 1 1 1 1 1 1 1 1 1 1 1 1 1 1 1 1 1 1 1 1 1 1 1 1 1 1 1 1 1 1 1 
0.01 0.01 0.01 0.01 0.01 0.01 0.01 0.01 0.01 0.01 0.01 0.01 0.01 0.01 0.01 0.01 0.01 0.01 0.01 0.01 0.01 0.01 0.01 0.01 0.01 0.01 0.01 0.01 0.01 0.01 0.01 0.01 
0.02 0.02 0.02 0.02 0.02 0.02 0.02 0.02 0.02 0.02 0.02 0.02 0.02 0.02 0.02 0.02 0.02 0.02 0.02 0.02 0.02 0.02 0.02 0.02 0.02 0.02 0.02 0.02 0.02 0.02 0.02 0.02 
0.03 0.03 0.03 0.03 0.03 0.03 0.03 0.03 0.03 0.03 0.03 0.03 0.03 0.03 0.03 0.03 0.03 0.03 0.03 0.03 0.03 0.03 0.03 0.03 0.03 0.03 0.03 0.03 0.03 0.03 0.03 0.03 
0.04 0.04 0.04 0.04 0.04 0.04 0.04 0.04 0.04 0.04 0.04 0.04 0.04 0.04 0.04 0.04 0.04 0.04 0.04 0.04 0.04 0.04 0.04 0.04 0.04 0.04 0.04 0.04 0.04 0.04 0.04 0.04 
0.05 0.05 0.05 0.05 0.05 0.05 0.05 0.05 0.05 0.05 0.05 0.05 0.05 0.05 0.05 0.05 0.05 0.05 0.05 0.05 0.05 0.05 0.05 0.05 0.05 0.05 0.05 0.05 0.05 0.05 0.05 0.05 
0.06 0.06 0.06 0.06 0.06 0.06 0.06 0.06 0.06 0.06 0.06 0.06 0.06 0.06 0.06 0.06 0.06 0.06 0.06 0.06 0.06 0.06 0.06 0.06 0.06 0.06 0.06 0.06 0.06 0.06 0.06 0.06 
0.07 0.07 0.07 0.07 0.07 0.07 0.07 0.07 0.07 0.07 0.07 0.07 0.07 0.07 0.07 0.07 0.07 0.07 0.07 0.07 0.07 0.07 0.07 0.07 0.07 0.07 0.07 0.07 0.07 0.07 0.07 0.07 
0.2 0.2 0.2 0.2 0.2 0.2 0.2 0.2 0.2 0.2 0.2 0.2 0.2 0.2 0.2 0.2 0.2 0.2 0.2 0.2 0.2 0.2 0.2 0.2 0.2 0.2 0.2 0.2 0.2 0.2 0.2 0.2 
0.4 0.4 0.4 0.4 0.4 0.4 0.4 0.4 0.4 0.4 0.4 0.4 0.4 0.4 0.4 0.4 0.4 0.4 0.4 0.4 0.4 0.4 0.4 0.4 0.4 0.4 0.4 0.4 0.4 0.4 0.4 0.4 
0.6 0.6 0.6 0.6 0.6 0.6 0.6 0.6 0.6 0.6 0.6 0.6 0.6 0.6 0.6 0.6 0.6 0.6 0.6 0.6 0.6 0.6 0.6 0.6 0.6 0.6 0.6 0.6 0.6 0.6 0.6 0.6 
0.8 0.8 0.8 0.8 0.8 0.8 0.8 0.8 0.8 0.8 0.8 0.8 0.8 0.8 0.8 0.8 0.8 0.8 0.8 0.8 0.8 0.8 0.8 0.8 0.8 0.8 0.8 0.8 0.8 0.8 0.8 0.8 
1 1 1 1 1 1 1 1 1 1 1 1 1 1 1 1 1 1 1 1 1 1 1 1 1 1 1 1 1 1 1 1 
